15072
0 1 1 0 0 1 0 0 1 0 0 1 1 1 0 0 0 1 0 0 1 0 0 0 1 0 1 0 1 1 
20 11 13 2 20 5 2 24 28 17 24 8 8 20 17 8 17 17 5 11 2 17 5 17 5 8 2 24 5 24 5 11 13 11 20 20 24 24 11 2 17 8 24 8 24 17 17 13 11 8 29 28 17 5 13 20 17 11 11 17 17 5 20 11 11 11 24 17 5 24 20 20 11 17 24 8 26 20 1 24 20 17 13 17 17 17 17 17 20 5 2 24 17 11 17 5 2 2 29 13 8 17 17 11 2 29 17 11 28 28 17 1 2 11 11 11 24 24 24 24 5 8 11 13 8 11 5 24 11 12 17 11 24 5 8 8 17 5 20 17 11 8 20 2 8 11 11 5 2 5 
